1 51 2
-880 -821 -363 -308 -763 -633 -807 -263 -78 -905 -572 -595 -899 -833 -144 -841 -814 -908 -102 -751 -324 -315 -374 -807 -723 -885 -20 -89 -364 -423 -517 -535 -792 -36 -417 -886 -579 -62 -527 -305 -443 -798 -517 -586 -875 -715 -774 -71 -982 -627 0 
-569 -644 -812 -59 -881 -272 -434 -725 -272 -61 -106 -395 -266 -638 -389 -553 -558 -365 -457 -37 -612 -853 -947 -617 -183 -469 -333 -119 -876 -727 -158 -827 -317 -226 -418 -681 -465 -775 -537 -821 -427 -312 -630 -24 -512 -951 -421 -853 -472 -286 0 
340 960 1000 93 699 497 952 797 797 504 317 916 310 257 934 353 468 275 549 329 28 206 332 597 779 378 900 338 602 847 653 808 989 192 288 190 975 505 54 334 386 703 299 629 42 331 641 41 757 999 1 
13085 
